c parsing input formula with 729 variables and 39743 clauses
c finished parsing
c detected empty clause; start verification via backward checking
c 706 of 39743 clauses in core                            
c 17010 of 36510 lemmas in core using 341877 resolution steps
c 0 RAT lemmas in core; 0 redundant literals in core lemmas
s VERIFIED
c verification time: 1.193 seconds
